(set-logic HORN)
(declare-fun !inv0 (Int Int Int Bool (Array Int Int) Int ) Bool)
(declare-fun !inv1 (Int Int Int Bool (Array Int Int) Int Int ) Bool)
(assert (forall ((n@0 Int)(pos@0 Int)(element@0 Int)(found@0 Bool)(vectorx@0 (Array Int Int))(i@0 Int)) (=> (and (> |n@0| 0) (= |found@0| false) (= |i@0| 0)) (!inv0 |n@0| |pos@0| |element@0| |found@0| |vectorx@0| |i@0|))))
(assert (forall ((n@0 Int)(pos@0 Int)(element@0 Int)(found@0 Bool)(vectorx@0 (Array Int Int))(i@0 Int)(j@0 Int)) (=> (and (!inv0 |n@0| |pos@0| |element@0| |found@0| |vectorx@0| |i@0|) (not (and (< |i@0| |n@0|) (not |found@0|))) |found@0| (= |j@0| |pos@0|)) (!inv1 |n@0| |pos@0| |element@0| |found@0| |vectorx@0| |i@0| |j@0|))))
(assert (forall ((n@0 Int)(pos@0 Int)(element@0 Int)(found@0 Bool)(vectorx@0 (Array Int Int))(i@0 Int)(j@0 Int)(vectorx@1 (Array Int Int))(j@1 Int)) (=> (and (!inv1 |n@0| |pos@0| |element@0| |found@0| |vectorx@0| |i@0| |j@0|) (< |j@0| (- |n@0| 1)) (= |vectorx@1| (store |vectorx@0| |j@0| (select |vectorx@0| (+ |j@0| 1)))) (= |j@1| (+ |j@0| 1))) (!inv1 |n@0| |pos@0| |element@0| |found@0| |vectorx@1| |i@0| |j@1|))))
(assert (forall ((n@0 Int)(pos@0 Int)(element@0 Int)(found@0 Bool)(vectorx@0 (Array Int Int))(i@0 Int)(i@1 Int)(found@1 Bool)(pos@1 Int)) (=> (and (!inv0 |n@0| |pos@1| |element@0| |found@1| |vectorx@0| |i@0|) (= |i@1| (+ |i@0| 1)) (= (select |vectorx@0| |i@0|) |element@0|) (= |found@0| true) (= |pos@0| |i@0|) (< |i@0| |n@0|) (not |found@1|)) (!inv0 |n@0| |pos@0| |element@0| |found@0| |vectorx@0| |i@1|))))
(assert (forall ((n@0 Int)(pos@0 Int)(element@0 Int)(found@0 Bool)(vectorx@0 (Array Int Int))(i@0 Int)(j@0 Int)) (=> (and (!inv1 |n@0| |pos@0| |element@0| |found@0| |vectorx@0| |i@0| |j@0|) |found@0| (not (forall ((k@0 Int)) (=> (and (<= 0 |k@0|) (< |k@0| |pos@0|)) (not (= (select |vectorx@0| |k@0|) |element@0|))))) (not (< |j@0| (- |n@0| 1)))) false)))
(assert (forall ((n@0 Int)(pos@0 Int)(element@0 Int)(found@0 Bool)(vectorx@0 (Array Int Int))(i@0 Int)(i@1 Int)) (=> (and (!inv0 |n@0| |pos@0| |element@0| |found@0| |vectorx@0| |i@0|) (= |i@1| (+ |i@0| 1)) (not (= (select |vectorx@0| |i@0|) |element@0|)) (< |i@0| |n@0|) (not |found@0|)) (!inv0 |n@0| |pos@0| |element@0| |found@0| |vectorx@0| |i@1|))))
(assert (forall ((n@0 Int)(pos@0 Int)(element@0 Int)(found@0 Bool)(vectorx@0 (Array Int Int))(i@0 Int)) (=> (and (!inv0 |n@0| |pos@0| |element@0| |found@0| |vectorx@0| |i@0|) |found@0| (not (forall ((k@0 Int)) (=> (and (<= 0 |k@0|) (< |k@0| |pos@0|)) (not (= (select |vectorx@0| |k@0|) |element@0|))))) (not (and (< |i@0| |n@0|) (not |found@0|))) (not |found@0|)) false)))
(check-sat)